17	4
27	26	25	34	
0	0	0	0	0	3	2	3	4	
9	4	8	9	0	3	5	6	9	
8	0	4	1	9	1	15	
10	9	2	7	0	3	8	9	11	
7	0	7	3	0	3	7	17	17	
100	8	9	6	6	3	16	17	17	
250	0	10	0	3	1	12	
100	10	10	0	9	2	17	17	
200	5	0	7	0	2	10	17	
225	4	0	3	0	3	14	17	17	
200	2	0	7	10	1	17	
75	3	7	0	10	1	13	
8	3	4	4	9	2	17	17	
4	8	0	1	2	2	17	17	
7	2	0	2	9	3	17	17	17	
1	0	8	5	2	2	17	17	
0	0	0	0	0	0	
